(set-info :smt-lib-version 2.6)
(set-logic QF_S)
(set-info :source |
Generated by: Murphy Berzish, Mitja Kulczynski, Federico Mora, Florin Manea, Joel Day, Dirk Nowotka, Vijay Ganesh, Zhengyang Lu
Generated on: 2020-10-01
Description: Translated from a collection of real-world regex queries, AutomataArk, collected by Loris D’Antoni and Fang Wang: https://github.com/lorisdanto/automatark
Application: Evaluate solvers on real-world regex queries
Target solver: Z3str3RE, CVC4, OSTRICH, Z3seq, Z3str3, Z3-Trau
Publications: Berzish, M., Kulczynski, M., Mora, F., Manea, F., Day, J. D., Nowotka, D., & Ganesh, V. (2021, July). An SMT solver for regular expressions and linear arithmetic over string length. In CAV 2021.
|)
(set-info :license "https://creativecommons.org/licenses/by/4.0/")
(set-info :category "industrial")
(set-info :status sat)

(declare-const X String)
(assert (not (str.in_re X (re.++ ((_ re.loop 4 4) (re.range "0" "9")) (re.union (re.range "A" "Z") (re.range "0" "9")) (re.* (re.union (re.range "A" "Z") (re.range "0" "9"))) (str.to_re "\u{a},") (re.* (str.to_re " ")) ((_ re.loop 4 4) (re.range "0" "9"))))))
(assert (str.in_re X (re.++ ((_ re.loop 1 1) (re.++ (re.opt (str.to_re "0")) ((_ re.loop 1 1) (re.range "1" "9")) ((_ re.loop 2 2) (re.range "0" "9")))) (re.opt (str.to_re " ")) (re.union (re.++ ((_ re.loop 3 3) (re.range "0" "9")) (re.opt (str.to_re " ")) ((_ re.loop 3 3) (re.range "0" "9"))) (re.++ ((_ re.loop 2 2) (re.range "0" "9")) (re.opt (str.to_re " ")) ((_ re.loop 2 2) (re.range "0" "9")) (re.opt (str.to_re " ")) ((_ re.loop 2 2) (re.range "0" "9")))) (str.to_re "\u{a}"))))
(assert (not (str.in_re X (re.++ (str.to_re "//") ((_ re.loop 5 5) (re.range "a" "z")) (str.to_re ".php?id=0") ((_ re.loop 5 5) (re.range "0" "9")) (str.to_re "111D30") ((_ re.loop 6 6) (re.union (re.range "a" "z") (re.range "A" "Z") (re.range "0" "9"))) (str.to_re "/Ui\u{a}")))))
(assert (not (str.in_re X (re.++ (str.to_re "/filename=") (re.* (re.comp (str.to_re "\u{a}"))) (str.to_re ".search-ms/i\u{a}")))))
(assert (not (str.in_re X (re.++ (str.to_re "}{Trojan:") (re.+ (re.union (re.range "0" "9") (re.range "A" "Z") (re.range "a" "z") (str.to_re "_"))) (str.to_re "by") (re.+ (re.range "0" "9")) (str.to_re "to") (re.+ (re.union (re.range "0" "9") (re.range "A" "Z") (re.range "a" "z") (str.to_re "_"))) (str.to_re "dddlogin.dudu.comSurveillance\u{13}IPOblivion\u{a}")))))
(check-sat)

(exit)
